NAME : X-n393-k38
COMMENT : "Generated by Uchoa, Pecin, Pessoa, Poggi, Subramanian, and Vidal (2013)"
TYPE : CVRP
DIMENSION : 393
EDGE_WEIGHT_TYPE : EUC_2D
CAPACITY : 78
NODE_COORD_SECTION
1 500 500
2 113 195
3 377 239
4 364 39
5 306 316
6 795 18
7 803 771
8 845 880
9 440 450
10 284 370
11 785 211
12 860 318
13 170 621
14 180 957
15 707 913
16 861 505
17 546 186
18 910 997
19 403 865
20 373 357
21 317 394
22 225 729
23 666 199
24 505 56
25 436 885
26 711 906
27 736 688
28 439 550
29 561 186
30 276 294
31 810 244
32 939 53
33 551 220
34 662 179
35 537 420
36 843 543
37 970 798
38 933 860
39 518 910
40 571 265
41 583 119
42 985 150
43 810 48
44 620 230
45 859 278
46 40 882
47 419 310
48 63 713
49 471 758
50 151 399
51 808 811
52 54 756
53 796 931
54 698 66
55 391 808
56 324 665
57 409 562
58 886 760
59 36 197
60 682 514
61 596 305
62 252 372
63 564 16
64 515 641
65 839 206
66 160 313
67 248 945
68 288 150
69 326 201
70 301 6
71 316 800
72 45 410
73 449 618
74 196 391
75 448 41
76 908 558
77 302 672
78 694 425
79 277 270
80 575 993
81 183 972
82 469 577
83 890 727
84 826 883
85 91 15
86 526 335
87 325 793
88 15 658
89 231 693
90 698 701
91 76 488
92 578 518
93 510 785
94 146 694
95 589 978
96 526 926
97 36 459
98 859 847
99 762 64
100 949 109
101 624 779
102 152 709
103 448 691
104 516 564
105 289 195
106 172 345
107 952 443
108 974 550
109 751 49
110 391 837
111 531 44
112 647 594
113 931 76
114 111 779
115 898 863
116 939 987
117 455 898
118 961 784
119 717 403
120 829 284
121 152 529
122 398 980
123 105 812
124 377 812
125 554 874
126 209 508
127 134 378
128 221 155
129 396 228
130 7 29
131 327 28
132 75 671
133 115 779
134 734 216
135 162 834
136 234 977
137 353 101
138 159 260
139 569 501
140 68 458
141 453 663
142 382 366
143 430 883
144 528 767
145 965 322
146 328 254
147 82 468
148 642 318
149 135 828
150 252 663
151 816 889
152 13 795
153 422 318
154 236 845
155 373 417
156 329 646
157 979 824
158 692 65
159 450 466
160 851 582
161 166 765
162 857 111
163 194 87
164 918 84
165 48 452
166 297 780
167 710 476
168 449 898
169 891 587
170 410 387
171 550 467
172 441 531
173 661 762
174 918 264
175 224 33
176 469 760
177 534 961
178 371 255
179 694 794
180 185 127
181 384 56
182 650 223
183 874 501
184 822 439
185 289 312
186 462 546
187 130 555
188 686 269
189 32 885
190 843 617
191 786 493
192 665 455
193 598 317
194 655 343
195 613 491
196 726 602
197 674 47
198 92 650
199 340 871
200 411 577
201 151 902
202 173 977
203 94 672
204 292 532
205 166 928
206 19 992
207 311 839
208 296 547
209 133 564
210 385 729
211 101 966
212 370 870
213 357 692
214 407 548
215 443 554
216 130 898
217 231 820
218 30 771
219 567 538
220 68 586
221 405 435
222 331 855
223 210 861
224 410 744
225 190 760
226 354 936
227 91 824
228 231 907
229 237 968
230 219 878
231 7 685
232 376 577
233 160 906
234 163 999
235 313 598
236 223 937
237 345 895
238 478 633
239 525 520
240 153 851
241 459 720
242 192 916
243 185 792
244 351 912
245 461 450
246 25 985
247 486 905
248 90 715
249 327 531
250 540 632
251 411 631
252 231 915
253 371 748
254 221 739
255 131 657
256 402 893
257 176 632
258 60 851
259 152 947
260 139 911
261 176 969
262 139 954
263 182 936
264 149 997
265 348 466
266 143 988
267 301 850
268 83 610
269 23 856
270 104 694
271 293 819
272 195 586
273 309 835
274 101 876
275 237 919
276 143 890
277 255 851
278 119 938
279 145 878
280 193 757
281 477 756
282 409 613
283 114 919
284 299 907
285 393 593
286 107 651
287 287 981
288 190 940
289 378 861
290 182 951
291 426 810
292 76 563
293 152 876
294 87 697
295 405 632
296 459 591
297 61 921
298 216 656
299 80 646
300 200 801
301 302 631
302 441 599
303 30 984
304 164 797
305 96 862
306 347 527
307 249 700
308 173 880
309 418 772
310 262 426
311 208 752
312 222 603
313 76 571
314 135 871
315 76 976
316 163 784
317 130 834
318 488 798
319 2 986
320 8 895
321 179 574
322 153 886
323 419 649
324 459 337
325 284 864
326 120 918
327 416 849
328 19 788
329 129 932
330 262 763
331 108 521
332 154 594
333 362 575
334 129 997
335 402 509
336 221 833
337 147 823
338 332 901
339 227 552
340 429 876
341 95 926
342 103 756
343 513 819
344 359 853
345 499 576
346 452 633
347 292 683
348 290 890
349 173 991
350 466 341
351 32 909
352 28 619
353 567 639
354 230 947
355 149 943
356 295 460
357 223 992
358 336 909
359 578 423
360 20 532
361 522 601
362 105 726
363 413 893
364 330 931
365 335 904
366 180 989
367 223 699
368 125 945
369 399 829
370 361 401
371 195 922
372 349 956
373 355 866
374 134 970
375 172 990
376 283 760
377 135 861
378 202 999
379 339 591
380 141 894
381 208 910
382 140 631
383 117 860
384 431 871
385 175 491
386 293 729
387 126 772
388 51 632
389 144 955
390 334 809
391 383 878
392 158 910
393 37 951
PICKUP_AND_DELIVERY_SECTION
1 0 0 1000000000 0 0 0
2 0 0 1000000000 0 0 5
3 0 0 1000000000 0 0 5
4 0 0 1000000000 0 0 7
5 0 0 1000000000 0 0 9
6 0 0 1000000000 0 0 7
7 0 0 1000000000 0 0 8
8 0 0 1000000000 0 0 5
9 0 0 1000000000 0 0 7
10 0 0 1000000000 0 0 8
11 0 0 1000000000 0 7 0
12 0 0 1000000000 0 0 9
13 0 0 1000000000 0 0 9
14 0 0 1000000000 0 0 10
15 0 0 1000000000 0 0 6
16 0 0 1000000000 0 0 7
17 0 0 1000000000 0 0 9
18 0 0 1000000000 0 0 8
19 0 0 1000000000 0 0 7
20 0 0 1000000000 0 0 6
21 0 0 1000000000 0 9 0
22 0 0 1000000000 0 0 5
23 0 0 1000000000 0 0 5
24 0 0 1000000000 0 0 10
25 0 0 1000000000 0 0 6
26 0 0 1000000000 0 0 6
27 0 0 1000000000 0 0 9
28 0 0 1000000000 0 0 6
29 0 0 1000000000 0 0 6
30 0 0 1000000000 0 0 7
31 0 0 1000000000 0 9 0
32 0 0 1000000000 0 0 6
33 0 0 1000000000 0 0 6
34 0 0 1000000000 0 0 9
35 0 0 1000000000 0 0 5
36 0 0 1000000000 0 0 7
37 0 0 1000000000 0 0 5
38 0 0 1000000000 0 0 8
39 0 0 1000000000 0 0 8
40 0 0 1000000000 0 0 6
41 0 0 1000000000 0 5 0
42 0 0 1000000000 0 0 9
43 0 0 1000000000 0 0 7
44 0 0 1000000000 0 0 10
45 0 0 1000000000 0 0 9
46 0 0 1000000000 0 0 7
47 0 0 1000000000 0 0 10
48 0 0 1000000000 0 0 9
49 0 0 1000000000 0 0 7
50 0 0 1000000000 0 0 9
51 0 0 1000000000 0 9 0
52 0 0 1000000000 0 0 8
53 0 0 1000000000 0 0 8
54 0 0 1000000000 0 0 9
55 0 0 1000000000 0 0 5
56 0 0 1000000000 0 0 8
57 0 0 1000000000 0 0 8
58 0 0 1000000000 0 0 6
59 0 0 1000000000 0 0 9
60 0 0 1000000000 0 0 10
61 0 0 1000000000 0 9 0
62 0 0 1000000000 0 0 10
63 0 0 1000000000 0 0 7
64 0 0 1000000000 0 0 7
65 0 0 1000000000 0 0 7
66 0 0 1000000000 0 0 10
67 0 0 1000000000 0 0 9
68 0 0 1000000000 0 0 8
69 0 0 1000000000 0 0 6
70 0 0 1000000000 0 0 5
71 0 0 1000000000 0 5 0
72 0 0 1000000000 0 0 6
73 0 0 1000000000 0 0 8
74 0 0 1000000000 0 0 5
75 0 0 1000000000 0 0 7
76 0 0 1000000000 0 0 6
77 0 0 1000000000 0 0 9
78 0 0 1000000000 0 0 9
79 0 0 1000000000 0 0 6
80 0 0 1000000000 0 0 9
81 0 0 1000000000 0 9 0
82 0 0 1000000000 0 0 10
83 0 0 1000000000 0 0 10
84 0 0 1000000000 0 0 10
85 0 0 1000000000 0 0 6
86 0 0 1000000000 0 0 5
87 0 0 1000000000 0 0 10
88 0 0 1000000000 0 0 7
89 0 0 1000000000 0 0 10
90 0 0 1000000000 0 0 10
91 0 0 1000000000 0 6 0
92 0 0 1000000000 0 0 6
93 0 0 1000000000 0 0 10
94 0 0 1000000000 0 0 7
95 0 0 1000000000 0 0 7
96 0 0 1000000000 0 0 5
97 0 0 1000000000 0 0 5
98 0 0 1000000000 0 0 7
99 0 0 1000000000 0 0 5
100 0 0 1000000000 0 0 10
101 0 0 1000000000 0 6 0
102 0 0 1000000000 0 0 10
103 0 0 1000000000 0 0 8
104 0 0 1000000000 0 0 8
105 0 0 1000000000 0 0 7
106 0 0 1000000000 0 0 5
107 0 0 1000000000 0 0 8
108 0 0 1000000000 0 0 7
109 0 0 1000000000 0 0 6
110 0 0 1000000000 0 0 6
111 0 0 1000000000 0 7 0
112 0 0 1000000000 0 0 5
113 0 0 1000000000 0 0 8
114 0 0 1000000000 0 0 7
115 0 0 1000000000 0 0 9
116 0 0 1000000000 0 0 7
117 0 0 1000000000 0 0 5
118 0 0 1000000000 0 0 7
119 0 0 1000000000 0 0 10
120 0 0 1000000000 0 0 8
121 0 0 1000000000 0 6 0
122 0 0 1000000000 0 0 6
123 0 0 1000000000 0 0 7
124 0 0 1000000000 0 0 10
125 0 0 1000000000 0 0 6
126 0 0 1000000000 0 0 5
127 0 0 1000000000 0 0 5
128 0 0 1000000000 0 0 8
129 0 0 1000000000 0 0 7
130 0 0 1000000000 0 0 8
131 0 0 1000000000 0 5 0
132 0 0 1000000000 0 0 6
133 0 0 1000000000 0 0 8
134 0 0 1000000000 0 0 7
135 0 0 1000000000 0 0 8
136 0 0 1000000000 0 0 8
137 0 0 1000000000 0 0 8
138 0 0 1000000000 0 0 7
139 0 0 1000000000 0 0 9
140 0 0 1000000000 0 0 8
141 0 0 1000000000 0 7 0
142 0 0 1000000000 0 0 10
143 0 0 1000000000 0 0 6
144 0 0 1000000000 0 0 5
145 0 0 1000000000 0 0 10
146 0 0 1000000000 0 0 6
147 0 0 1000000000 0 0 6
148 0 0 1000000000 0 0 10
149 0 0 1000000000 0 0 5
150 0 0 1000000000 0 0 5
151 0 0 1000000000 0 9 0
152 0 0 1000000000 0 0 9
153 0 0 1000000000 0 0 6
154 0 0 1000000000 0 0 10
155 0 0 1000000000 0 0 7
156 0 0 1000000000 0 0 9
157 0 0 1000000000 0 0 9
158 0 0 1000000000 0 0 5
159 0 0 1000000000 0 0 5
160 0 0 1000000000 0 0 8
161 0 0 1000000000 0 10 0
162 0 0 1000000000 0 0 6
163 0 0 1000000000 0 0 10
164 0 0 1000000000 0 0 8
165 0 0 1000000000 0 0 6
166 0 0 1000000000 0 0 8
167 0 0 1000000000 0 0 8
168 0 0 1000000000 0 0 8
169 0 0 1000000000 0 0 9
170 0 0 1000000000 0 0 9
171 0 0 1000000000 0 6 0
172 0 0 1000000000 0 0 7
173 0 0 1000000000 0 0 7
174 0 0 1000000000 0 0 5
175 0 0 1000000000 0 0 5
176 0 0 1000000000 0 0 10
177 0 0 1000000000 0 0 7
178 0 0 1000000000 0 0 10
179 0 0 1000000000 0 0 9
180 0 0 1000000000 0 0 5
181 0 0 1000000000 0 10 0
182 0 0 1000000000 0 0 10
183 0 0 1000000000 0 0 10
184 0 0 1000000000 0 0 5
185 0 0 1000000000 0 0 9
186 0 0 1000000000 0 0 6
187 0 0 1000000000 0 0 10
188 0 0 1000000000 0 0 5
189 0 0 1000000000 0 0 10
190 0 0 1000000000 0 0 8
191 0 0 1000000000 0 10 0
192 0 0 1000000000 0 0 6
193 0 0 1000000000 0 0 8
194 0 0 1000000000 0 0 6
195 0 0 1000000000 0 0 8
196 0 0 1000000000 0 0 8
197 0 0 1000000000 0 0 10
198 0 0 1000000000 0 0 8
199 0 0 1000000000 0 0 6
200 0 0 1000000000 0 0 5
201 0 0 1000000000 0 10 0
202 0 0 1000000000 0 0 10
203 0 0 1000000000 0 0 10
204 0 0 1000000000 0 0 10
205 0 0 1000000000 0 0 9
206 0 0 1000000000 0 0 9
207 0 0 1000000000 0 0 8
208 0 0 1000000000 0 0 7
209 0 0 1000000000 0 0 9
210 0 0 1000000000 0 0 10
211 0 0 1000000000 0 10 0
212 0 0 1000000000 0 0 6
213 0 0 1000000000 0 0 8
214 0 0 1000000000 0 0 5
215 0 0 1000000000 0 0 5
216 0 0 1000000000 0 0 10
217 0 0 1000000000 0 0 7
218 0 0 1000000000 0 0 6
219 0 0 1000000000 0 0 5
220 0 0 1000000000 0 0 6
221 0 0 1000000000 0 10 0
222 0 0 1000000000 0 0 9
223 0 0 1000000000 0 0 5
224 0 0 1000000000 0 0 10
225 0 0 1000000000 0 0 10
226 0 0 1000000000 0 0 10
227 0 0 1000000000 0 0 5
228 0 0 1000000000 0 0 7
229 0 0 1000000000 0 0 7
230 0 0 1000000000 0 0 9
231 0 0 1000000000 0 5 0
232 0 0 1000000000 0 0 7
233 0 0 1000000000 0 0 8
234 0 0 1000000000 0 0 6
235 0 0 1000000000 0 0 9
236 0 0 1000000000 0 0 10
237 0 0 1000000000 0 0 8
238 0 0 1000000000 0 0 5
239 0 0 1000000000 0 0 5
240 0 0 1000000000 0 0 8
241 0 0 1000000000 0 10 0
242 0 0 1000000000 0 0 5
243 0 0 1000000000 0 0 10
244 0 0 1000000000 0 0 10
245 0 0 1000000000 0 0 7
246 0 0 1000000000 0 0 5
247 0 0 1000000000 0 0 7
248 0 0 1000000000 0 0 5
249 0 0 1000000000 0 0 5
250 0 0 1000000000 0 0 6
251 0 0 1000000000 0 5 0
252 0 0 1000000000 0 0 8
253 0 0 1000000000 0 0 5
254 0 0 1000000000 0 0 8
255 0 0 1000000000 0 0 6
256 0 0 1000000000 0 0 6
257 0 0 1000000000 0 0 10
258 0 0 1000000000 0 0 5
259 0 0 1000000000 0 0 8
260 0 0 1000000000 0 0 10
261 0 0 1000000000 0 7 0
262 0 0 1000000000 0 0 5
263 0 0 1000000000 0 0 8
264 0 0 1000000000 0 0 5
265 0 0 1000000000 0 0 9
266 0 0 1000000000 0 0 9
267 0 0 1000000000 0 0 9
268 0 0 1000000000 0 0 8
269 0 0 1000000000 0 0 5
270 0 0 1000000000 0 0 6
271 0 0 1000000000 0 7 0
272 0 0 1000000000 0 0 5
273 0 0 1000000000 0 0 7
274 0 0 1000000000 0 0 5
275 0 0 1000000000 0 0 10
276 0 0 1000000000 0 0 6
277 0 0 1000000000 0 0 9
278 0 0 1000000000 0 0 9
279 0 0 1000000000 0 0 9
280 0 0 1000000000 0 0 8
281 0 0 1000000000 0 8 0
282 0 0 1000000000 0 0 6
283 0 0 1000000000 0 0 9
284 0 0 1000000000 0 0 10
285 0 0 1000000000 0 0 9
286 0 0 1000000000 0 0 7
287 0 0 1000000000 0 0 9
288 0 0 1000000000 0 0 8
289 0 0 1000000000 0 0 6
290 0 0 1000000000 0 0 6
291 0 0 1000000000 0 9 0
292 0 0 1000000000 0 0 9
293 0 0 1000000000 0 0 5
294 0 0 1000000000 0 0 9
295 0 0 1000000000 0 0 5
296 0 0 1000000000 0 0 7
297 0 0 1000000000 0 0 5
298 0 0 1000000000 0 0 9
299 0 0 1000000000 0 0 6
300 0 0 1000000000 0 0 7
301 0 0 1000000000 0 9 0
302 0 0 1000000000 0 0 8
303 0 0 1000000000 0 0 10
304 0 0 1000000000 0 0 7
305 0 0 1000000000 0 0 6
306 0 0 1000000000 0 0 8
307 0 0 1000000000 0 0 9
308 0 0 1000000000 0 0 5
309 0 0 1000000000 0 0 10
310 0 0 1000000000 0 0 7
311 0 0 1000000000 0 8 0
312 0 0 1000000000 0 0 5
313 0 0 1000000000 0 0 9
314 0 0 1000000000 0 0 8
315 0 0 1000000000 0 0 7
316 0 0 1000000000 0 0 5
317 0 0 1000000000 0 0 5
318 0 0 1000000000 0 0 6
319 0 0 1000000000 0 0 6
320 0 0 1000000000 0 0 6
321 0 0 1000000000 0 9 0
322 0 0 1000000000 0 0 6
323 0 0 1000000000 0 0 5
324 0 0 1000000000 0 0 6
325 0 0 1000000000 0 0 8
326 0 0 1000000000 0 0 10
327 0 0 1000000000 0 0 8
328 0 0 1000000000 0 0 9
329 0 0 1000000000 0 0 7
330 0 0 1000000000 0 0 5
331 0 0 1000000000 0 10 0
332 0 0 1000000000 0 0 9
333 0 0 1000000000 0 0 10
334 0 0 1000000000 0 0 10
335 0 0 1000000000 0 0 5
336 0 0 1000000000 0 0 8
337 0 0 1000000000 0 0 5
338 0 0 1000000000 0 0 5
339 0 0 1000000000 0 0 8
340 0 0 1000000000 0 0 7
341 0 0 1000000000 0 6 0
342 0 0 1000000000 0 0 5
343 0 0 1000000000 0 0 7
344 0 0 1000000000 0 0 9
345 0 0 1000000000 0 0 6
346 0 0 1000000000 0 0 5
347 0 0 1000000000 0 0 9
348 0 0 1000000000 0 0 10
349 0 0 1000000000 0 0 6
350 0 0 1000000000 0 0 8
351 0 0 1000000000 0 6 0
352 0 0 1000000000 0 0 9
353 0 0 1000000000 0 0 6
354 0 0 1000000000 0 0 9
355 0 0 1000000000 0 0 6
356 0 0 1000000000 0 0 10
357 0 0 1000000000 0 0 6
358 0 0 1000000000 0 0 9
359 0 0 1000000000 0 0 5
360 0 0 1000000000 0 0 8
361 0 0 1000000000 0 8 0
362 0 0 1000000000 0 0 8
363 0 0 1000000000 0 0 10
364 0 0 1000000000 0 0 6
365 0 0 1000000000 0 0 8
366 0 0 1000000000 0 0 8
367 0 0 1000000000 0 0 7
368 0 0 1000000000 0 0 6
369 0 0 1000000000 0 0 10
370 0 0 1000000000 0 0 7
371 0 0 1000000000 0 7 0
372 0 0 1000000000 0 0 10
373 0 0 1000000000 0 0 9
374 0 0 1000000000 0 0 5
375 0 0 1000000000 0 0 9
376 0 0 1000000000 0 0 6
377 0 0 1000000000 0 0 10
378 0 0 1000000000 0 0 7
379 0 0 1000000000 0 0 10
380 0 0 1000000000 0 0 7
381 0 0 1000000000 0 10 0
382 0 0 1000000000 0 0 5
383 0 0 1000000000 0 0 6
384 0 0 1000000000 0 0 6
385 0 0 1000000000 0 0 7
386 0 0 1000000000 0 0 6
387 0 0 1000000000 0 0 7
388 0 0 1000000000 0 0 5
389 0 0 1000000000 0 0 7
390 0 0 1000000000 0 0 7
391 0 0 1000000000 0 8 0
392 0 0 1000000000 0 0 7
393 0 0 1000000000 0 0 6
